0	83	140	118	182	66	164	171	157	30	26	
199	0	82	155	28	152	158	130	176	35	77	
124	160	0	52	78	110	136	61	162	97	128	
90	195	183	0	120	62	128	113	96	154	65	
66	144	42	178	0	68	93	153	133	70	90	
48	78	129	34	31	0	83	192	59	195	30	
98	44	177	192	190	82	0	22	155	197	173	
100	67	73	75	142	37	192	0	70	193	56	
138	97	161	28	158	121	192	163	0	46	95	
81	61	79	189	133	24	141	172	150	0	107	
29	101	70	115	99	117	146	119	42	91	0	
